Gurobi Optimizer version 9.1.0 build v9.1.0rc0 (linux64)
Thread count: 8 physical cores, 16 logical processors, using up to 16 threads
Optimize a model with 127786 rows, 120480 columns and 691170 nonzeros
Model fingerprint: 0x24f55207
Variable types: 0 continuous, 120480 integer (120480 binary)
Coefficient statistics:
  Matrix range     [1e+00, 1e+00]
  Objective range  [1e+01, 5e+04]
  Bounds range     [1e+00, 1e+00]
  RHS range        [1e+00, 5e+02]
Presolve added 0 rows and 2970 columns
Presolve removed 30 rows and 0 columns
Presolve time: 2.25s
Presolved: 127756 rows, 123450 columns, 520110 nonzeros
Variable types: 0 continuous, 123450 integer (123450 binary)
Found heuristic solution: objective 354493.00000

Concurrent LP optimizer: primal simplex, dual simplex, and barrier
Showing barrier log only...

Root barrier log...

Ordering time: 0.04s

Barrier statistics:
 Dense cols : 240
 AA' NZ     : 4.061e+05
 Factor NZ  : 1.637e+06 (roughly 120 MBytes of memory)
 Factor Ops : 2.201e+08 (less than 1 second per iteration)
 Threads    : 6

                  Objective                Residual
Iter       Primal          Dual         Primal    Dual     Compl     Time
   0   1.22774233e+08 -1.72842482e+08  2.70e+02 3.01e+01  1.55e+04     4s
   1   1.02218064e+06 -1.78460597e+08  7.34e+00 8.05e+03  6.40e+02     5s
   2   5.13998827e+05 -1.38532644e+07  1.55e+00 1.60e+02  5.24e+01     5s
   3   4.02358746e+05 -2.71512900e+06  3.26e-01 2.54e+01  9.31e+00     5s
   4   3.55383387e+05 -1.73633926e+05  2.76e-02 6.10e+00  1.43e+00     5s
   5   3.41621704e+05  1.39590709e+05  2.09e-02 1.71e+00  5.43e-01     6s
   6   3.30194853e+05  2.11835163e+05  1.63e-02 7.90e-01  3.17e-01     6s
   7   3.23997985e+05  2.40377428e+05  1.44e-02 4.24e-01  2.23e-01     6s
   8   3.15479282e+05  2.51203704e+05  1.19e-02 2.79e-01  1.71e-01     7s
   9   3.10601492e+05  2.59334304e+05  1.05e-02 1.76e-01  1.36e-01     7s
  10   3.04890254e+05  2.63791634e+05  9.02e-03 1.15e-01  1.09e-01     7s
  11   3.01260621e+05  2.66776496e+05  8.10e-03 7.20e-02  9.15e-02     8s
  12   2.95741455e+05  2.68587497e+05  6.64e-03 4.75e-02  7.20e-02     8s
  13   2.90955697e+05  2.69804898e+05  5.36e-03 3.41e-02  5.60e-02     9s
  14   2.88209724e+05  2.70383353e+05  4.60e-03 2.71e-02  4.72e-02     9s
  15   2.85612699e+05  2.70908227e+05  3.87e-03 2.09e-02  3.89e-02     9s
  16   2.83153623e+05  2.71212730e+05  3.16e-03 1.76e-02  3.16e-02    10s
  17   2.81339260e+05  2.71566311e+05  2.64e-03 1.34e-02  2.58e-02    10s
  18   2.79650559e+05  2.71862674e+05  2.14e-03 1.03e-02  2.06e-02    10s
  19   2.77848615e+05  2.72122307e+05  1.65e-03 7.52e-03  1.51e-02    11s
  20   2.77160121e+05  2.72281948e+05  1.43e-03 5.99e-03  1.29e-02    11s
  21   2.76511021e+05  2.72470714e+05  1.23e-03 4.21e-03  1.07e-02    11s
  22   2.75617084e+05  2.72533667e+05  9.57e-04 3.76e-03  8.13e-03    12s
  23   2.75220355e+05  2.72620692e+05  8.20e-04 2.96e-03  6.85e-03    12s
  24   2.74840111e+05  2.72736730e+05  6.96e-04 2.06e-03  5.54e-03    12s
  25   2.74594453e+05  2.72810591e+05  6.13e-04 1.62e-03  4.69e-03    12s
  26   2.74272512e+05  2.72840328e+05  5.01e-04 1.43e-03  3.77e-03    13s
  27   2.74120878e+05  2.72869617e+05  4.44e-04 1.19e-03  3.29e-03    13s
  28   2.73968261e+05  2.72886521e+05  3.82e-04 1.02e-03  2.84e-03    13s
  29   2.73773377e+05  2.72899892e+05  3.10e-04 8.84e-04  2.30e-03    14s
  30   2.73632052e+05  2.72918480e+05  2.61e-04 7.22e-04  1.87e-03    14s
  31   2.73500067e+05  2.72930236e+05  2.11e-04 6.18e-04  1.50e-03    14s
  32   2.73410062e+05  2.72953341e+05  1.78e-04 4.32e-04  1.20e-03    14s
  33   2.73317811e+05  2.72964253e+05  1.40e-04 3.34e-04  9.27e-04    15s
  34   2.73269661e+05  2.72973365e+05  1.20e-04 2.65e-04  7.76e-04    15s
  35   2.73225563e+05  2.72976575e+05  1.02e-04 2.36e-04  6.52e-04    15s
  36   2.73190854e+05  2.72982738e+05  8.66e-05 1.86e-04  5.45e-04    16s
  37   2.73174423e+05  2.72986830e+05  7.91e-05 1.59e-04  4.91e-04    16s
  38   2.73155353e+05  2.72989748e+05  7.03e-05 1.38e-04  4.33e-04    16s
  39   2.73134921e+05  2.72991256e+05  6.11e-05 1.26e-04  3.76e-04    16s
  40   2.73118508e+05  2.72994917e+05  5.41e-05 9.82e-05  3.23e-04    17s
  41   2.73099255e+05  2.72996959e+05  4.64e-05 8.29e-05  2.67e-04    17s
  42   2.73090212e+05  2.73000243e+05  4.25e-05 6.03e-05  2.35e-04    17s
  43   2.73071338e+05  2.73002642e+05  3.34e-05 4.21e-05  1.79e-04    18s
  44   2.73067316e+05  2.73003551e+05  3.13e-05 3.57e-05  1.66e-04    18s
  45   2.73050915e+05  2.73005147e+05  2.27e-05 2.59e-05  1.19e-04    18s
  46   2.73046748e+05  2.73006092e+05  2.07e-05 2.02e-05  1.06e-04    18s
  47   2.73039267e+05  2.73006763e+05  1.67e-05 1.66e-05  8.45e-05    19s
  48   2.73033216e+05  2.73007229e+05  1.33e-05 1.34e-05  6.76e-05    19s
  49   2.73028232e+05  2.73007684e+05  1.06e-05 1.05e-05  5.34e-05    19s
  50   2.73025266e+05  2.73007848e+05  8.91e-06 9.48e-06  4.53e-05    20s
  51   2.73024493e+05  2.73007912e+05  8.47e-06 9.13e-06  4.31e-05    20s
  52   2.73020478e+05  2.73008321e+05  6.29e-06 6.55e-06  3.16e-05    20s
  53   2.73016569e+05  2.73008588e+05  4.17e-06 4.94e-06  2.07e-05    20s
  54   2.73014292e+05  2.73008819e+05  2.85e-06 3.61e-06  1.42e-05    21s
  55   2.73012536e+05  2.73009157e+05  1.79e-06 1.79e-06  8.78e-06    21s
  56   2.73011449e+05  2.73009322e+05  1.16e-06 8.16e-07  5.52e-06    21s
  57   2.73011189e+05  2.73009337e+05  9.96e-07 7.61e-07  4.81e-06    21s
  58   2.73010826e+05  2.73009383e+05  7.72e-07 5.47e-07  3.75e-06    22s
  59   2.73010438e+05  2.73009419e+05  5.34e-07 4.23e-07  2.65e-06    22s
  60   2.73010135e+05  2.73009466e+05  3.49e-07 2.56e-07  1.74e-06    22s
  61   2.73009981e+05  2.73009491e+05  2.58e-07 1.54e-07  1.27e-06    22s
  62   2.73009634e+05  2.73009512e+05  5.32e-08 6.61e-08  3.20e-07    22s
  63   2.73009611e+05  2.73009528e+05  3.99e-08 2.76e-08  2.16e-07    23s
  64   2.73009552e+05  2.73009531e+05  7.44e-09 8.49e-08  5.62e-08    23s
  65   2.73009548e+05  2.73009536e+05  5.06e-09 6.90e-08  3.11e-08    23s
  66   2.73009547e+05  2.73009536e+05  4.60e-09 6.42e-08  2.83e-08    23s
  67   2.73009547e+05  2.73009536e+05  4.58e-09 6.40e-08  2.82e-08    23s
  68   2.73009547e+05  2.73009536e+05  4.58e-09 6.41e-08  2.82e-08    24s

Barrier solved model in 68 iterations and 23.64 seconds
Optimal objective 2.73009547e+05


Root crossover log...

   88241 variables added to crossover basis                       25s

   37211 DPushes remaining with DInf 2.5551767e-03                29s
     631 DPushes remaining with DInf 2.5551767e-03                34s
       9 DPushes remaining with DInf 1.7602605e-03                35s
       0 DPushes remaining with DInf 4.5016206e-02                35s

     825 PPushes remaining with PInf 4.8772053e-05                35s
       0 PPushes remaining with PInf 0.0000000e+00                36s

  Push phase complete: Pinf 0.0000000e+00, Dinf 1.9994753e-09     36s


Root simplex log...

Iteration    Objective       Primal Inf.    Dual Inf.      Time
    8579    2.7300954e+05   0.000000e+00   0.000000e+00     36s
    8579    2.7300954e+05   0.000000e+00   0.000000e+00     36s

Solved with barrier

Root relaxation: objective 2.730095e+05, 8579 iterations, 32.30 seconds

    Nodes    |    Current Node    |     Objective Bounds      |     Work
 Expl Unexpl |  Obj  Depth IntInf | Incumbent    BestBd   Gap | It/Node Time

     0     0 273009.539    0 17293 354493.000 273009.539  23.0%     -   38s
H    0     0                    303243.00000 273009.539  10.0%     -   39s
H    0     0                    300350.00000 273009.539  9.10%     -   40s
     0     0 273009.539    0 17293 300350.000 273009.539  9.10%     -   95s
H    0     0                    295848.00000 273010.419  7.72%     -  153s
H    0     2                    293992.00000 273010.419  7.14%     -  162s
     0     2 273010.419    0 17293 293992.000 273010.419  7.14%     -  162s

Explored 1 nodes (11579 simplex iterations) in 300.04 seconds
Thread count was 16 (of 16 available processors)

Solution count 5: 293992 295848 300350 ... 354493

Time limit reached
Best objective 2.939920000000e+05, best bound 2.730110000000e+05, gap 7.1366%

User-callback calls 12683, time in user-callback 0.28 sec
Result: runtime=162.30sec; objective=293992; gap=7.1366%
Solution written to /autofs/unityaccount/cremi/mdeboute/Bureau/multi-period-flp/solution//instSingle_I30_J500_T8_0_result.txt
